p cnf 259 577
1 0
2 0
3 0
4 0
5 0
6 0
7 0
8 0
9 0
10 0
11 0
12 0
13 0
14 0
15 0
16 0
17 0
18 0
-100 219 0
100 -219 0
-101 220 0
101 -220 0
220 -40 100 0
-220 40 0
-220 -100 0
219 -40 101 0
-219 40 0
-219 -101 0
-108 227 0
108 -227 0
-109 228 0
109 -228 0
228 108 -44 0
-228 -108 0
-228 44 0
227 109 -44 0
-227 -109 0
-227 44 0
-44 156 0
44 -156 0
-118 237 0
118 -237 0
-119 238 0
119 -238 0
238 -49 118 0
-238 49 0
-238 -118 0
237 119 -49 0
-237 -119 0
-237 49 0
156 -26 -29 0
-156 26 0
-156 29 0
-49 163 164 0
49 -163 0
49 -164 0
-106 225 0
106 -225 0
-107 226 0
107 -226 0
226 -43 106 0
-226 43 0
-226 -106 0
225 -43 107 0
-225 43 0
-225 -107 0
-88 207 0
88 -207 0
-89 208 0
89 -208 0
-43 155 0
43 -155 0
208 88 -29 0
-208 -88 0
-208 29 0
207 -29 89 0
-207 29 0
-207 -89 0
163 -19 -44 0
-163 19 0
-163 44 0
155 -29 -23 0
-155 29 0
-155 23 0
-135 254 0
135 -254 0
-134 253 0
134 -253 0
253 135 -57 0
-253 -135 0
-253 57 0
254 -57 134 0
-254 57 0
-254 -134 0
-124 243 0
124 -243 0
-125 244 0
125 -244 0
244 124 -52 0
-244 -124 0
-244 52 0
243 125 -52 0
-243 -125 0
-243 52 0
-57 173 174 0
57 -173 0
57 -174 0
-52 167 0
52 -167 0
174 -52 -22 0
-174 52 0
-174 22 0
-126 245 0
126 -245 0
-127 246 0
127 -246 0
246 126 -53 0
-246 -126 0
-246 53 0
245 127 -53 0
-245 -127 0
-245 53 0
-53 168 0
53 -168 0
-79 198 0
79 -198 0
-78 197 0
78 -197 0
197 79 -20 0
-197 -79 0
-197 20 0
198 78 -20 0
-198 -78 0
-198 20 0
167 -41 -23 0
-167 41 0
-167 23 0
168 -41 -26 0
-168 41 0
-168 26 0
-20 141 0
20 -141 0
141 -19 0
-141 19 0
-130 249 0
130 -249 0
-131 250 0
131 -250 0
250 130 -55 0
-250 -130 0
-250 55 0
249 131 -55 0
-249 -131 0
-249 55 0
-55 171 0
55 -171 0
-140 259 0
140 -259 0
259 -138 0
-259 138 0
-138 257 0
138 -257 0
-139 258 0
139 -258 0
258 -59 138 0
-258 59 0
-258 -138 0
257 -59 139 0
-257 59 0
-257 -139 0
171 -54 -23 0
-171 54 0
-171 23 0
-59 177 178 0
59 -177 0
59 -178 0
-132 251 0
132 -251 0
-133 252 0
133 -252 0
252 -56 132 0
-252 56 0
-252 -132 0
251 -56 133 0
-251 56 0
-251 -133 0
-56 172 0
56 -172 0
177 -22 -55 0
-177 22 0
-177 55 0
172 -26 -54 0
-172 26 0
-172 54 0
-122 241 0
122 -241 0
-123 242 0
123 -242 0
242 -51 122 0
-242 51 0
-242 -122 0
241 -51 123 0
-241 51 0
-241 -123 0
-136 255 0
136 -255 0
-137 256 0
137 -256 0
256 136 -58 0
-256 -136 0
-256 58 0
255 -58 137 0
-255 58 0
-255 -137 0
-51 166 0
51 -166 0
-58 176 175 0
58 -176 0
58 -175 0
176 -19 -51 0
-176 19 0
-176 51 0
-120 239 0
120 -239 0
-121 240 0
121 -240 0
240 120 -50 0
-240 -120 0
-240 50 0
239 -50 121 0
-239 50 0
-239 -121 0
-104 223 0
104 -223 0
-105 224 0
105 -224 0
-50 165 0
50 -165 0
224 104 -42 0
-224 -104 0
-224 42 0
223 -42 105 0
-223 42 0
-223 -105 0
166 -26 -42 0
-166 26 0
-166 42 0
165 -42 -23 0
-165 42 0
-165 23 0
-110 229 0
110 -229 0
-111 230 0
111 -230 0
230 110 -45 0
-230 -110 0
-230 45 0
229 111 -45 0
-229 -111 0
-229 45 0
-45 157 0
45 -157 0
-116 235 0
116 -235 0
-117 236 0
117 -236 0
236 -48 116 0
-236 48 0
-236 -116 0
235 -48 117 0
-235 48 0
-235 -117 0
157 -27 -23 0
-157 27 0
-157 23 0
-48 161 162 0
48 -161 0
48 -162 0
-112 231 0
112 -231 0
-113 232 0
113 -232 0
232 112 -46 0
-232 -112 0
-232 46 0
231 -46 113 0
-231 46 0
-231 -113 0
-46 158 0
46 -158 0
161 -45 -22 0
-161 45 0
-161 22 0
158 -26 -27 0
-158 26 0
-158 27 0
-90 209 0
90 -209 0
-91 210 0
91 -210 0
210 -32 90 0
-210 32 0
-210 -90 0
209 -32 91 0
-209 32 0
-209 -91 0
-96 215 0
96 -215 0
-97 216 0
97 -216 0
150 -38 0
-150 38 0
216 96 -37 0
-216 -96 0
-216 37 0
215 -37 97 0
-215 37 0
-215 -97 0
147 -31 0
-147 31 0
-37 150 0
37 -150 0
-98 217 0
98 -217 0
-99 218 0
99 -218 0
218 98 -39 0
-218 -98 0
-218 39 0
217 99 -39 0
-217 -99 0
-217 39 0
-32 147 0
32 -147 0
-39 151 0
39 -151 0
-128 247 0
128 -247 0
-129 248 0
129 -248 0
151 -37 -31 0
-151 37 0
-151 31 0
248 128 -54 0
-248 -128 0
-248 54 0
247 -54 129 0
-247 54 0
-247 -129 0
170 -28 -39 0
-170 28 0
-170 39 0
-86 205 0
86 -205 0
-87 206 0
87 -206 0
154 -32 -28 0
-154 32 0
-154 28 0
145 -28 0
-145 28 0
206 86 -27 0
-206 -86 0
-206 27 0
205 87 -27 0
-205 -87 0
-205 27 0
175 -50 -22 0
-175 50 0
-175 22 0
162 -19 -46 0
-162 19 0
-162 46 0
-114 233 0
114 -233 0
-115 234 0
115 -234 0
234 114 -47 0
-234 -114 0
-234 47 0
233 115 -47 0
-233 -115 0
-233 47 0
-83 202 0
83 -202 0
-82 201 0
82 -201 0
143 -23 0
-143 23 0
201 -24 83 0
-201 24 0
-201 -83 0
202 -24 82 0
-202 24 0
-202 -82 0
-80 199 0
80 -199 0
-81 200 0
81 -200 0
200 80 -21 0
-200 -80 0
-200 21 0
199 -21 81 0
-199 21 0
-199 -81 0
-47 160 159 0
47 -160 0
47 -159 0
-24 143 0
24 -143 0
-21 142 0
21 -142 0
142 -22 0
-142 22 0
-85 204 0
85 -204 0
-84 203 0
84 -203 0
203 -25 85 0
-203 25 0
-203 -85 0
204 -25 84 0
-204 25 0
-204 -84 0
144 -26 0
-144 26 0
160 -24 -22 0
-160 24 0
-160 22 0
-25 144 0
25 -144 0
164 -43 -22 0
-164 43 0
-164 22 0
173 -19 -53 0
-173 19 0
-173 53 0
178 -56 -19 0
-178 56 0
-178 19 0
-42 154 0
42 -154 0
-27 145 0
27 -145 0
159 -25 -19 0
-159 25 0
-159 19 0
146 -30 0
-146 30 0
-102 221 0
102 -221 0
-103 222 0
103 -222 0
-29 146 0
29 -146 0
222 -41 102 0
-222 41 0
-222 -102 0
221 103 -41 0
-221 -103 0
-221 41 0
-54 169 170 0
54 -169 0
54 -170 0
-40 152 0
40 -152 0
-41 153 0
41 -153 0
-92 211 0
92 -211 0
-93 212 0
93 -212 0
169 -40 -30 0
-169 40 0
-169 30 0
212 -34 92 0
-212 34 0
-212 -92 0
211 -34 93 0
-211 34 0
-211 -93 0
153 -34 -30 0
-153 34 0
-153 30 0
-34 148 0
34 -148 0
148 -33 0
-148 33 0
-94 213 0
94 -213 0
-95 214 0
95 -214 0
152 -33 -36 0
-152 33 0
-152 36 0
214 94 -36 0
-214 -94 0
-214 36 0
213 95 -36 0
-213 -95 0
-213 36 0
195 77 0
-195 -77 0
191 73 0
-191 -73 0
187 69 0
-187 -69 0
183 65 0
-183 -65 0
182 62 0
-182 -62 0
180 60 0
-180 -60 0
189 71 0
-189 -71 0
193 75 0
-193 -75 0
-67 186 0
67 -186 0
-36 149 0
36 -149 0
-76 195 0
76 -195 0
196 76 0
-196 -76 0
-77 196 0
77 -196 0
-72 191 0
72 -191 0
192 72 0
-192 -72 0
-73 192 0
73 -192 0
-68 187 0
68 -187 0
188 68 0
-188 -68 0
-69 188 0
69 -188 0
-64 183 0
64 -183 0
184 64 0
-184 -64 0
-65 184 0
65 -184 0
-63 182 0
63 -182 0
181 63 0
-181 -63 0
-62 181 0
62 -181 0
-61 180 0
61 -180 0
179 61 0
-179 -61 0
-60 179 0
60 -179 0
-70 189 0
70 -189 0
190 70 0
-190 -70 0
-71 190 0
71 -190 0
-74 193 0
74 -193 0
194 74 0
-194 -74 0
-75 194 0
75 -194 0
185 67 0
-185 -67 0
186 66 0
-186 -66 0
-66 185 0
66 -185 0
149 -35 0
-149 35 0
c p weight 1 (1.0,1.0) 0
c p weight -1 (1.0,1.0) 0
c p weight 2 (1.0,1.0) 0
c p weight -2 (1.0,1.0) 0
c p weight 3 (1.0,1.0) 0
c p weight -3 (1.0,1.0) 0
c p weight 4 (1.0,1.0) 0
c p weight -4 (1.0,1.0) 0
c p weight 5 (1.0,1.0) 0
c p weight -5 (1.0,1.0) 0
c p weight 6 (1.0,1.0) 0
c p weight -6 (1.0,1.0) 0
c p weight 7 (1.0,1.0) 0
c p weight -7 (1.0,1.0) 0
c p weight 8 (1.0,1.0) 0
c p weight -8 (1.0,1.0) 0
c p weight 9 (1.0,1.0) 0
c p weight -9 (1.0,1.0) 0
c p weight 10 (1.0,1.0) 0
c p weight -10 (1.0,1.0) 0
c p weight 11 (1.0,1.0) 0
c p weight -11 (1.0,1.0) 0
c p weight 12 (1.0,1.0) 0
c p weight -12 (1.0,1.0) 0
c p weight 13 (1.0,1.0) 0
c p weight -13 (1.0,1.0) 0
c p weight 14 (1.0,1.0) 0
c p weight -14 (1.0,1.0) 0
c p weight 15 (1.0,1.0) 0
c p weight -15 (1.0,1.0) 0
c p weight 16 (1.0,1.0) 0
c p weight -16 (1.0,1.0) 0
c p weight 17 (1.0,1.0) 0
c p weight -17 (1.0,1.0) 0
c p weight 18 (1.0,1.0) 0
c p weight -18 (1.0,1.0) 0
c p weight 19 0.882 0
c p weight -19 0.118 0
c p weight 20 (1.0,1.0) 0
c p weight -20 (1.0,1.0) 0
c p weight 21 (1.0,1.0) 0
c p weight -21 (1.0,1.0) 0
c p weight 22 0.938 0
c p weight -22 0.062000000000000055 0
c p weight 23 0.932 0
c p weight -23 0.06799999999999995 0
c p weight 24 (1.0,1.0) 0
c p weight -24 (1.0,1.0) 0
c p weight 25 (1.0,1.0) 0
c p weight -25 (1.0,1.0) 0
c p weight 26 0.814 0
c p weight -26 0.18600000000000005 0
c p weight 27 (1.0,1.0) 0
c p weight -27 (1.0,1.0) 0
c p weight 28 0.996 0
c p weight -28 0.0040000000000000036 0
c p weight 29 (1.0,1.0) 0
c p weight -29 (1.0,1.0) 0
c p weight 30 0.992 0
c p weight -30 0.008000000000000007 0
c p weight 31 0.987 0
c p weight -31 0.013000000000000012 0
c p weight 32 (1.0,1.0) 0
c p weight -32 (1.0,1.0) 0
c p weight 33 0.962 0
c p weight -33 0.038000000000000034 0
c p weight 34 (1.0,1.0) 0
c p weight -34 (1.0,1.0) 0
c p weight 35 0.8 0
c p weight -35 0.19999999999999996 0
c p weight 36 (1.0,1.0) 0
c p weight -36 (1.0,1.0) 0
c p weight 37 (1.0,1.0) 0
c p weight -37 (1.0,1.0) 0
c p weight 38 0.8 0
c p weight -38 0.19999999999999996 0
c p weight 39 (1.0,1.0) 0
c p weight -39 (1.0,1.0) 0
c p weight 40 (1.0,1.0) 0
c p weight -40 (1.0,1.0) 0
c p weight 41 (1.0,1.0) 0
c p weight -41 (1.0,1.0) 0
c p weight 42 (1.0,1.0) 0
c p weight -42 (1.0,1.0) 0
c p weight 43 (1.0,1.0) 0
c p weight -43 (1.0,1.0) 0
c p weight 44 (1.0,1.0) 0
c p weight -44 (1.0,1.0) 0
c p weight 45 (1.0,1.0) 0
c p weight -45 (1.0,1.0) 0
c p weight 46 (1.0,1.0) 0
c p weight -46 (1.0,1.0) 0
c p weight 47 (1.0,1.0) 0
c p weight -47 (1.0,1.0) 0
c p weight 48 (1.0,1.0) 0
c p weight -48 (1.0,1.0) 0
c p weight 49 (1.0,1.0) 0
c p weight -49 (1.0,1.0) 0
c p weight 50 (1.0,1.0) 0
c p weight -50 (1.0,1.0) 0
c p weight 51 (1.0,1.0) 0
c p weight -51 (1.0,1.0) 0
c p weight 52 (1.0,1.0) 0
c p weight -52 (1.0,1.0) 0
c p weight 53 (1.0,1.0) 0
c p weight -53 (1.0,1.0) 0
c p weight 54 (1.0,1.0) 0
c p weight -54 (1.0,1.0) 0
c p weight 55 (1.0,1.0) 0
c p weight -55 (1.0,1.0) 0
c p weight 56 (1.0,1.0) 0
c p weight -56 (1.0,1.0) 0
c p weight 57 (1.0,1.0) 0
c p weight -57 (1.0,1.0) 0
c p weight 58 (1.0,1.0) 0
c p weight -58 (1.0,1.0) 0
c p weight 59 (1.0,1.0) 0
c p weight -59 (1.0,1.0) 0
c p weight 60 (1.0,1.0) 0
c p weight -60 (1.0,1.0) 0
c p weight 61 (1.0,1.0) 0
c p weight -61 (1.0,1.0) 0
c p weight 62 (1.0,1.0) 0
c p weight -62 (1.0,1.0) 0
c p weight 63 (1.0,1.0) 0
c p weight -63 (1.0,1.0) 0
c p weight 64 (1.0,1.0) 0
c p weight -64 (1.0,1.0) 0
c p weight 65 (1.0,1.0) 0
c p weight -65 (1.0,1.0) 0
c p weight 66 (1.0,1.0) 0
c p weight -66 (1.0,1.0) 0
c p weight 67 (1.0,1.0) 0
c p weight -67 (1.0,1.0) 0
c p weight 68 (1.0,1.0) 0
c p weight -68 (1.0,1.0) 0
c p weight 69 (1.0,1.0) 0
c p weight -69 (1.0,1.0) 0
c p weight 70 (1.0,1.0) 0
c p weight -70 (1.0,1.0) 0
c p weight 71 (1.0,1.0) 0
c p weight -71 (1.0,1.0) 0
c p weight 72 (1.0,1.0) 0
c p weight -72 (1.0,1.0) 0
c p weight 73 (1.0,1.0) 0
c p weight -73 (1.0,1.0) 0
c p weight 74 (1.0,1.0) 0
c p weight -74 (1.0,1.0) 0
c p weight 75 (1.0,1.0) 0
c p weight -75 (1.0,1.0) 0
c p weight 76 (1.0,1.0) 0
c p weight -76 (1.0,1.0) 0
c p weight 77 (1.0,1.0) 0
c p weight -77 (1.0,1.0) 0
c p weight 78 (1.0,1.0) 0
c p weight -78 (1.0,1.0) 0
c p weight 79 (1.0,1.0) 0
c p weight -79 (1.0,1.0) 0
c p weight 80 (1.0,1.0) 0
c p weight -80 (1.0,1.0) 0
c p weight 81 (1.0,1.0) 0
c p weight -81 (1.0,1.0) 0
c p weight 82 (1.0,1.0) 0
c p weight -82 (1.0,1.0) 0
c p weight 83 (1.0,1.0) 0
c p weight -83 (1.0,1.0) 0
c p weight 84 (1.0,1.0) 0
c p weight -84 (1.0,1.0) 0
c p weight 85 (1.0,1.0) 0
c p weight -85 (1.0,1.0) 0
c p weight 86 (1.0,1.0) 0
c p weight -86 (1.0,1.0) 0
c p weight 87 (1.0,1.0) 0
c p weight -87 (1.0,1.0) 0
c p weight 88 (1.0,1.0) 0
c p weight -88 (1.0,1.0) 0
c p weight 89 (1.0,1.0) 0
c p weight -89 (1.0,1.0) 0
c p weight 90 (1.0,1.0) 0
c p weight -90 (1.0,1.0) 0
c p weight 91 (1.0,1.0) 0
c p weight -91 (1.0,1.0) 0
c p weight 92 (1.0,1.0) 0
c p weight -92 (1.0,1.0) 0
c p weight 93 (1.0,1.0) 0
c p weight -93 (1.0,1.0) 0
c p weight 94 (1.0,1.0) 0
c p weight -94 (1.0,1.0) 0
c p weight 95 (1.0,1.0) 0
c p weight -95 (1.0,1.0) 0
c p weight 96 (1.0,1.0) 0
c p weight -96 (1.0,1.0) 0
c p weight 97 (1.0,1.0) 0
c p weight -97 (1.0,1.0) 0
c p weight 98 (1.0,1.0) 0
c p weight -98 (1.0,1.0) 0
c p weight 99 (1.0,1.0) 0
c p weight -99 (1.0,1.0) 0
c p weight 100 (1.0,1.0) 0
c p weight -100 (1.0,1.0) 0
c p weight 101 (1.0,1.0) 0
c p weight -101 (1.0,1.0) 0
c p weight 102 (1.0,1.0) 0
c p weight -102 (1.0,1.0) 0
c p weight 103 (1.0,1.0) 0
c p weight -103 (1.0,1.0) 0
c p weight 104 (1.0,1.0) 0
c p weight -104 (1.0,1.0) 0
c p weight 105 (1.0,1.0) 0
c p weight -105 (1.0,1.0) 0
c p weight 106 (1.0,1.0) 0
c p weight -106 (1.0,1.0) 0
c p weight 107 (1.0,1.0) 0
c p weight -107 (1.0,1.0) 0
c p weight 108 (1.0,1.0) 0
c p weight -108 (1.0,1.0) 0
c p weight 109 (1.0,1.0) 0
c p weight -109 (1.0,1.0) 0
c p weight 110 (1.0,1.0) 0
c p weight -110 (1.0,1.0) 0
c p weight 111 (1.0,1.0) 0
c p weight -111 (1.0,1.0) 0
c p weight 112 (1.0,1.0) 0
c p weight -112 (1.0,1.0) 0
c p weight 113 (1.0,1.0) 0
c p weight -113 (1.0,1.0) 0
c p weight 114 (1.0,1.0) 0
c p weight -114 (1.0,1.0) 0
c p weight 115 (1.0,1.0) 0
c p weight -115 (1.0,1.0) 0
c p weight 116 (1.0,1.0) 0
c p weight -116 (1.0,1.0) 0
c p weight 117 (1.0,1.0) 0
c p weight -117 (1.0,1.0) 0
c p weight 118 (1.0,1.0) 0
c p weight -118 (1.0,1.0) 0
c p weight 119 (1.0,1.0) 0
c p weight -119 (1.0,1.0) 0
c p weight 120 (1.0,1.0) 0
c p weight -120 (1.0,1.0) 0
c p weight 121 (1.0,1.0) 0
c p weight -121 (1.0,1.0) 0
c p weight 122 (1.0,1.0) 0
c p weight -122 (1.0,1.0) 0
c p weight 123 (1.0,1.0) 0
c p weight -123 (1.0,1.0) 0
c p weight 124 (1.0,1.0) 0
c p weight -124 (1.0,1.0) 0
c p weight 125 (1.0,1.0) 0
c p weight -125 (1.0,1.0) 0
c p weight 126 (1.0,1.0) 0
c p weight -126 (1.0,1.0) 0
c p weight 127 (1.0,1.0) 0
c p weight -127 (1.0,1.0) 0
c p weight 128 (1.0,1.0) 0
c p weight -128 (1.0,1.0) 0
c p weight 129 (1.0,1.0) 0
c p weight -129 (1.0,1.0) 0
c p weight 130 (1.0,1.0) 0
c p weight -130 (1.0,1.0) 0
c p weight 131 (1.0,1.0) 0
c p weight -131 (1.0,1.0) 0
c p weight 132 (1.0,1.0) 0
c p weight -132 (1.0,1.0) 0
c p weight 133 (1.0,1.0) 0
c p weight -133 (1.0,1.0) 0
c p weight 134 (1.0,1.0) 0
c p weight -134 (1.0,1.0) 0
c p weight 135 (1.0,1.0) 0
c p weight -135 (1.0,1.0) 0
c p weight 136 (1.0,1.0) 0
c p weight -136 (1.0,1.0) 0
c p weight 137 (1.0,1.0) 0
c p weight -137 (1.0,1.0) 0
c p weight 138 (1.0,1.0) 0
c p weight -138 (1.0,1.0) 0
c p weight 139 (1.0,1.0) 0
c p weight -139 (1.0,1.0) 0
c p weight 140 (1.0,1.0) 0
c p weight -140 (0.0,1.0) 0
c p weight 141 (1.0,1.0) 0
c p weight -141 (1.0,1.0) 0
c p weight 142 (1.0,1.0) 0
c p weight -142 (1.0,1.0) 0
c p weight 143 (1.0,1.0) 0
c p weight -143 (1.0,1.0) 0
c p weight 144 (1.0,1.0) 0
c p weight -144 (1.0,1.0) 0
c p weight 145 (1.0,1.0) 0
c p weight -145 (1.0,1.0) 0
c p weight 146 (1.0,1.0) 0
c p weight -146 (1.0,1.0) 0
c p weight 147 (1.0,1.0) 0
c p weight -147 (1.0,1.0) 0
c p weight 148 (1.0,1.0) 0
c p weight -148 (1.0,1.0) 0
c p weight 149 (1.0,1.0) 0
c p weight -149 (1.0,1.0) 0
c p weight 150 (1.0,1.0) 0
c p weight -150 (1.0,1.0) 0
c p weight 151 (1.0,1.0) 0
c p weight -151 (1.0,1.0) 0
c p weight 152 (1.0,1.0) 0
c p weight -152 (1.0,1.0) 0
c p weight 153 (1.0,1.0) 0
c p weight -153 (1.0,1.0) 0
c p weight 154 (1.0,1.0) 0
c p weight -154 (1.0,1.0) 0
c p weight 155 (1.0,1.0) 0
c p weight -155 (1.0,1.0) 0
c p weight 156 (1.0,1.0) 0
c p weight -156 (1.0,1.0) 0
c p weight 157 (1.0,1.0) 0
c p weight -157 (1.0,1.0) 0
c p weight 158 (1.0,1.0) 0
c p weight -158 (1.0,1.0) 0
c p weight 159 (1.0,1.0) 0
c p weight -159 (1.0,1.0) 0
c p weight 160 (1.0,1.0) 0
c p weight -160 (1.0,1.0) 0
c p weight 161 (1.0,1.0) 0
c p weight -161 (1.0,1.0) 0
c p weight 162 (1.0,1.0) 0
c p weight -162 (1.0,1.0) 0
c p weight 163 (1.0,1.0) 0
c p weight -163 (1.0,1.0) 0
c p weight 164 (1.0,1.0) 0
c p weight -164 (1.0,1.0) 0
c p weight 165 (1.0,1.0) 0
c p weight -165 (1.0,1.0) 0
c p weight 166 (1.0,1.0) 0
c p weight -166 (1.0,1.0) 0
c p weight 167 (1.0,1.0) 0
c p weight -167 (1.0,1.0) 0
c p weight 168 (1.0,1.0) 0
c p weight -168 (1.0,1.0) 0
c p weight 169 (1.0,1.0) 0
c p weight -169 (1.0,1.0) 0
c p weight 170 (1.0,1.0) 0
c p weight -170 (1.0,1.0) 0
c p weight 171 (1.0,1.0) 0
c p weight -171 (1.0,1.0) 0
c p weight 172 (1.0,1.0) 0
c p weight -172 (1.0,1.0) 0
c p weight 173 (1.0,1.0) 0
c p weight -173 (1.0,1.0) 0
c p weight 174 (1.0,1.0) 0
c p weight -174 (1.0,1.0) 0
c p weight 175 (1.0,1.0) 0
c p weight -175 (1.0,1.0) 0
c p weight 176 (1.0,1.0) 0
c p weight -176 (1.0,1.0) 0
c p weight 177 (1.0,1.0) 0
c p weight -177 (1.0,1.0) 0
c p weight 178 (1.0,1.0) 0
c p weight -178 (1.0,1.0) 0
c p weight 179 (1.0,1.0) 0
c p weight -179 (1.0,1.0) 0
c p weight 180 (1.0,1.0) 0
c p weight -180 (1.0,1.0) 0
c p weight 181 (1.0,1.0) 0
c p weight -181 (1.0,1.0) 0
c p weight 182 (1.0,1.0) 0
c p weight -182 (1.0,1.0) 0
c p weight 183 (1.0,1.0) 0
c p weight -183 (1.0,1.0) 0
c p weight 184 (1.0,1.0) 0
c p weight -184 (1.0,1.0) 0
c p weight 185 (1.0,1.0) 0
c p weight -185 (1.0,1.0) 0
c p weight 186 (1.0,1.0) 0
c p weight -186 (1.0,1.0) 0
c p weight 187 (1.0,1.0) 0
c p weight -187 (1.0,1.0) 0
c p weight 188 (1.0,1.0) 0
c p weight -188 (1.0,1.0) 0
c p weight 189 (1.0,1.0) 0
c p weight -189 (1.0,1.0) 0
c p weight 190 (1.0,1.0) 0
c p weight -190 (1.0,1.0) 0
c p weight 191 (1.0,1.0) 0
c p weight -191 (1.0,1.0) 0
c p weight 192 (1.0,1.0) 0
c p weight -192 (1.0,1.0) 0
c p weight 193 (1.0,1.0) 0
c p weight -193 (1.0,1.0) 0
c p weight 194 (1.0,1.0) 0
c p weight -194 (1.0,1.0) 0
c p weight 195 (1.0,1.0) 0
c p weight -195 (1.0,1.0) 0
c p weight 196 (1.0,1.0) 0
c p weight -196 (1.0,1.0) 0
c p weight 197 (1.0,1.0) 0
c p weight -197 (1.0,1.0) 0
c p weight 198 (1.0,1.0) 0
c p weight -198 (1.0,1.0) 0
c p weight 199 (1.0,1.0) 0
c p weight -199 (1.0,1.0) 0
c p weight 200 (1.0,1.0) 0
c p weight -200 (1.0,1.0) 0
c p weight 201 (1.0,1.0) 0
c p weight -201 (1.0,1.0) 0
c p weight 202 (1.0,1.0) 0
c p weight -202 (1.0,1.0) 0
c p weight 203 (1.0,1.0) 0
c p weight -203 (1.0,1.0) 0
c p weight 204 (1.0,1.0) 0
c p weight -204 (1.0,1.0) 0
c p weight 205 (1.0,1.0) 0
c p weight -205 (1.0,1.0) 0
c p weight 206 (1.0,1.0) 0
c p weight -206 (1.0,1.0) 0
c p weight 207 (1.0,1.0) 0
c p weight -207 (1.0,1.0) 0
c p weight 208 (1.0,1.0) 0
c p weight -208 (1.0,1.0) 0
c p weight 209 (1.0,1.0) 0
c p weight -209 (1.0,1.0) 0
c p weight 210 (1.0,1.0) 0
c p weight -210 (1.0,1.0) 0
c p weight 211 (1.0,1.0) 0
c p weight -211 (1.0,1.0) 0
c p weight 212 (1.0,1.0) 0
c p weight -212 (1.0,1.0) 0
c p weight 213 (1.0,1.0) 0
c p weight -213 (1.0,1.0) 0
c p weight 214 (1.0,1.0) 0
c p weight -214 (1.0,1.0) 0
c p weight 215 (1.0,1.0) 0
c p weight -215 (1.0,1.0) 0
c p weight 216 (1.0,1.0) 0
c p weight -216 (1.0,1.0) 0
c p weight 217 (1.0,1.0) 0
c p weight -217 (1.0,1.0) 0
c p weight 218 (1.0,1.0) 0
c p weight -218 (1.0,1.0) 0
c p weight 219 (1.0,1.0) 0
c p weight -219 (1.0,1.0) 0
c p weight 220 (1.0,1.0) 0
c p weight -220 (1.0,1.0) 0
c p weight 221 (1.0,1.0) 0
c p weight -221 (1.0,1.0) 0
c p weight 222 (1.0,1.0) 0
c p weight -222 (1.0,1.0) 0
c p weight 223 (1.0,1.0) 0
c p weight -223 (1.0,1.0) 0
c p weight 224 (1.0,1.0) 0
c p weight -224 (1.0,1.0) 0
c p weight 225 (1.0,1.0) 0
c p weight -225 (1.0,1.0) 0
c p weight 226 (1.0,1.0) 0
c p weight -226 (1.0,1.0) 0
c p weight 227 (1.0,1.0) 0
c p weight -227 (1.0,1.0) 0
c p weight 228 (1.0,1.0) 0
c p weight -228 (1.0,1.0) 0
c p weight 229 (1.0,1.0) 0
c p weight -229 (1.0,1.0) 0
c p weight 230 (1.0,1.0) 0
c p weight -230 (1.0,1.0) 0
c p weight 231 (1.0,1.0) 0
c p weight -231 (1.0,1.0) 0
c p weight 232 (1.0,1.0) 0
c p weight -232 (1.0,1.0) 0
c p weight 233 (1.0,1.0) 0
c p weight -233 (1.0,1.0) 0
c p weight 234 (1.0,1.0) 0
c p weight -234 (1.0,1.0) 0
c p weight 235 (1.0,1.0) 0
c p weight -235 (1.0,1.0) 0
c p weight 236 (1.0,1.0) 0
c p weight -236 (1.0,1.0) 0
c p weight 237 (1.0,1.0) 0
c p weight -237 (1.0,1.0) 0
c p weight 238 (1.0,1.0) 0
c p weight -238 (1.0,1.0) 0
c p weight 239 (1.0,1.0) 0
c p weight -239 (1.0,1.0) 0
c p weight 240 (1.0,1.0) 0
c p weight -240 (1.0,1.0) 0
c p weight 241 (1.0,1.0) 0
c p weight -241 (1.0,1.0) 0
c p weight 242 (1.0,1.0) 0
c p weight -242 (1.0,1.0) 0
c p weight 243 (1.0,1.0) 0
c p weight -243 (1.0,1.0) 0
c p weight 244 (1.0,1.0) 0
c p weight -244 (1.0,1.0) 0
c p weight 245 (1.0,1.0) 0
c p weight -245 (1.0,1.0) 0
c p weight 246 (1.0,1.0) 0
c p weight -246 (1.0,1.0) 0
c p weight 247 (1.0,1.0) 0
c p weight -247 (1.0,1.0) 0
c p weight 248 (1.0,1.0) 0
c p weight -248 (1.0,1.0) 0
c p weight 249 (1.0,1.0) 0
c p weight -249 (1.0,1.0) 0
c p weight 250 (1.0,1.0) 0
c p weight -250 (1.0,1.0) 0
c p weight 251 (1.0,1.0) 0
c p weight -251 (1.0,1.0) 0
c p weight 252 (1.0,1.0) 0
c p weight -252 (1.0,1.0) 0
c p weight 253 (1.0,1.0) 0
c p weight -253 (1.0,1.0) 0
c p weight 254 (1.0,1.0) 0
c p weight -254 (1.0,1.0) 0
c p weight 255 (1.0,1.0) 0
c p weight -255 (1.0,1.0) 0
c p weight 256 (1.0,1.0) 0
c p weight -256 (1.0,1.0) 0
c p weight 257 (1.0,1.0) 0
c p weight -257 (1.0,1.0) 0
c p weight 258 (1.0,1.0) 0
c p weight -258 (1.0,1.0) 0
c p weight 259 (1.0,1.0) 0
c p weight -259 (1.0,1.0) 0
c p semirings aspmc.semirings.probabilistic aspmc.semirings.two_nat 0
c p transform lambda w : int(w[0] == w[1]) 0
c p quantify 33 35 38 19 22 23 26 28 30 31 0
c p quantify  0
c p auxilliary 141 142 143 144 145 146 147 148 149 150 151 152 153 154 155 156 157 158 159 160 161 162 163 164 165 166 167 168 169 170 171 172 173 174 175 176 177 178 179 180 181 182 183 184 185 186 187 188 189 190 191 192 193 194 195 196 197 198 199 200 201 202 203 204 205 206 207 208 209 210 211 212 213 214 215 216 217 218 219 220 221 222 223 224 225 226 227 228 229 230 231 232 233 234 235 236 237 238 239 240 241 242 243 244 245 246 247 248 249 250 251 252 253 254 255 256 257 258 259 0
